NAME          ../SMPS/sslp_5_50_100
ROWS
 N  obj
 L  c1
 L  c2
 L  c3
 L  c4
 L  c5
 L  c6
 E  c7
 E  c8
 E  c9
 E  c10
 E  c11
 E  c12
 E  c13
 E  c14
 E  c15
 E  c16
 E  c17
 E  c18
 E  c19
 E  c20
 E  c21
 E  c22
 E  c23
 E  c24
 E  c25
 E  c26
 E  c27
 E  c28
 E  c29
 E  c30
 E  c31
 E  c32
 E  c33
 E  c34
 E  c35
 E  c36
 E  c37
 E  c38
 E  c39
 E  c40
 E  c41
 E  c42
 E  c43
 E  c44
 E  c45
 E  c46
 E  c47
 E  c48
 E  c49
 E  c50
 E  c51
 E  c52
 E  c53
 E  c54
 E  c55
 E  c56
COLUMNS
    MARKER    'MARKER'  'INTORG'    
    x1        obj       69.000000     c1        1.000000    
    x1        c2        -904.800000 
    x2        obj       42.000000     c1        1.000000    
    x2        c3        -904.800000 
    x3        obj       44.000000     c1        1.000000    
    x3        c4        -904.800000 
    x4        obj       69.000000     c1        1.000000    
    x4        c5        -904.800000 
    x5        obj       70.000000     c1        1.000000    
    x5        c6        -904.800000 
    x6        obj       -6.000000     c2        6.000000    
    x6        c7        1.000000    
    x7        obj       -8.000000     c3        8.000000    
    x7        c7        1.000000    
    x8        obj       -11.000000    c4        11.000000   
    x8        c7        1.000000    
    x9        obj       -19.000000    c5        19.000000   
    x9        c7        1.000000    
    x10       obj       -21.000000    c6        21.000000   
    x10       c7        1.000000    
    x11       obj       -18.000000    c2        18.000000   
    x11       c8        1.000000    
    x12       obj       -19.000000    c3        19.000000   
    x12       c8        1.000000    
    x13       obj       -3.000000     c4        3.000000    
    x13       c8        1.000000    
    x14       obj       -11.000000    c5        11.000000   
    x14       c8        1.000000    
    x15       obj       -8.000000     c6        8.000000    
    x15       c8        1.000000    
    x16       obj       -19.000000    c2        19.000000   
    x16       c9        1.000000    
    x17       obj       -17.000000    c3        17.000000   
    x17       c9        1.000000    
    x18       obj       -23.000000    c4        23.000000   
    x18       c9        1.000000    
    x19       obj       -4.000000     c5        4.000000    
    x19       c9        1.000000    
    x20       obj       -22.000000    c6        22.000000   
    x20       c9        1.000000    
    x21       obj       -24.000000    c2        24.000000   
    x21       c10       1.000000    
    x22       obj       -13.000000    c3        13.000000   
    x22       c10       1.000000    
    x23       obj       -4.000000     c4        4.000000    
    x23       c10       1.000000    
    x24       obj       -3.000000     c5        3.000000    
    x24       c10       1.000000    
    x25       obj       -13.000000    c6        13.000000   
    x25       c10       1.000000    
    x26       obj       -11.000000    c2        11.000000   
    x26       c11       1.000000    
    x27       obj       -7.000000     c3        7.000000    
    x27       c11       1.000000    
    x28       obj       -21.000000    c4        21.000000   
    x28       c11       1.000000    
    x29       obj       -9.000000     c5        9.000000    
    x29       c11       1.000000    
    x30       obj       -21.000000    c6        21.000000   
    x30       c11       1.000000    
    x31       obj       -4.000000     c2        4.000000    
    x31       c12       1.000000    
    x32       obj       -9.000000     c3        9.000000    
    x32       c12       1.000000    
    x33       obj       -8.000000     c4        8.000000    
    x33       c12       1.000000    
    x34       obj       -18.000000    c5        18.000000   
    x34       c12       1.000000    
    x35       obj       -4.000000     c6        4.000000    
    x35       c12       1.000000    
    x36       obj       -8.000000     c2        8.000000    
    x36       c13       1.000000    
    x37       obj       -18.000000    c3        18.000000   
    x37       c13       1.000000    
    x38       obj       -15.000000    c4        15.000000   
    x38       c13       1.000000    
    x39       obj       -9.000000     c5        9.000000    
    x39       c13       1.000000    
    x40       obj       -11.000000    c6        11.000000   
    x40       c13       1.000000    
    x41       obj       -6.000000     c2        6.000000    
    x41       c14       1.000000    
    x42       obj       -13.000000    c3        13.000000   
    x42       c14       1.000000    
    x43       obj       -7.000000     c4        7.000000    
    x43       c14       1.000000    
    x44       obj       -3.000000     c5        3.000000    
    x44       c14       1.000000    
    x45       obj       -23.000000    c6        23.000000   
    x45       c14       1.000000    
    x46       obj       -2.000000     c2        2.000000    
    x46       c15       1.000000    
    x47       obj       -3.000000     c3        3.000000    
    x47       c15       1.000000    
    x48       obj       -19.000000    c4        19.000000   
    x48       c15       1.000000    
    x49       obj       -18.000000    c5        18.000000   
    x49       c15       1.000000    
    x50       obj       -7.000000     c6        7.000000    
    x50       c15       1.000000    
    x51       c16       1.000000    
    x52       obj       -11.000000    c3        11.000000   
    x52       c16       1.000000    
    x53       obj       -6.000000     c4        6.000000    
    x53       c16       1.000000    
    x54       obj       -14.000000    c5        14.000000   
    x54       c16       1.000000    
    x55       obj       -3.000000     c6        3.000000    
    x55       c16       1.000000    
    x56       obj       -3.000000     c2        3.000000    
    x56       c17       1.000000    
    x57       obj       -15.000000    c3        15.000000   
    x57       c17       1.000000    
    x58       obj       -21.000000    c4        21.000000   
    x58       c17       1.000000    
    x59       obj       -25.000000    c5        25.000000   
    x59       c17       1.000000    
    x60       obj       -16.000000    c6        16.000000   
    x60       c17       1.000000    
    x61       obj       -8.000000     c2        8.000000    
    x61       c18       1.000000    
    x62       obj       -18.000000    c3        18.000000   
    x62       c18       1.000000    
    x63       c18       1.000000    
    x64       obj       -11.000000    c5        11.000000   
    x64       c18       1.000000    
    x65       obj       -15.000000    c6        15.000000   
    x65       c18       1.000000    
    x66       obj       -19.000000    c2        19.000000   
    x66       c19       1.000000    
    x67       obj       -7.000000     c3        7.000000    
    x67       c19       1.000000    
    x68       obj       -6.000000     c4        6.000000    
    x68       c19       1.000000    
    x69       obj       -16.000000    c5        16.000000   
    x69       c19       1.000000    
    x70       obj       -7.000000     c6        7.000000    
    x70       c19       1.000000    
    x71       obj       -15.000000    c2        15.000000   
    x71       c20       1.000000    
    x72       obj       -13.000000    c3        13.000000   
    x72       c20       1.000000    
    x73       c20       1.000000    
    x74       obj       -1.000000     c5        1.000000    
    x74       c20       1.000000    
    x75       obj       -3.000000     c6        3.000000    
    x75       c20       1.000000    
    x76       obj       -11.000000    c2        11.000000   
    x76       c21       1.000000    
    x77       obj       -16.000000    c3        16.000000   
    x77       c21       1.000000    
    x78       obj       -1.000000     c4        1.000000    
    x78       c21       1.000000    
    x79       obj       -6.000000     c5        6.000000    
    x79       c21       1.000000    
    x80       obj       -23.000000    c6        23.000000   
    x80       c21       1.000000    
    x81       obj       -10.000000    c2        10.000000   
    x81       c22       1.000000    
    x82       obj       -17.000000    c3        17.000000   
    x82       c22       1.000000    
    x83       obj       -1.000000     c4        1.000000    
    x83       c22       1.000000    
    x84       obj       -14.000000    c5        14.000000   
    x84       c22       1.000000    
    x85       obj       -14.000000    c6        14.000000   
    x85       c22       1.000000    
    x86       obj       -13.000000    c2        13.000000   
    x86       c23       1.000000    
    x87       obj       -11.000000    c3        11.000000   
    x87       c23       1.000000    
    x88       obj       -14.000000    c4        14.000000   
    x88       c23       1.000000    
    x89       obj       -3.000000     c5        3.000000    
    x89       c23       1.000000    
    x90       obj       -20.000000    c6        20.000000   
    x90       c23       1.000000    
    x91       obj       -9.000000     c2        9.000000    
    x91       c24       1.000000    
    x92       obj       -1.000000     c3        1.000000    
    x92       c24       1.000000    
    x93       obj       -7.000000     c4        7.000000    
    x93       c24       1.000000    
    x94       obj       -16.000000    c5        16.000000   
    x94       c24       1.000000    
    x95       obj       -22.000000    c6        22.000000   
    x95       c24       1.000000    
    x96       obj       -16.000000    c2        16.000000   
    x96       c25       1.000000    
    x97       obj       -12.000000    c3        12.000000   
    x97       c25       1.000000    
    x98       obj       -12.000000    c4        12.000000   
    x98       c25       1.000000    
    x99       obj       -21.000000    c5        21.000000   
    x99       c25       1.000000    
    x100      obj       -6.000000     c6        6.000000    
    x100      c25       1.000000    
    x101      obj       -10.000000    c2        10.000000   
    x101      c26       1.000000    
    x102      obj       -18.000000    c3        18.000000   
    x102      c26       1.000000    
    x103      obj       -23.000000    c4        23.000000   
    x103      c26       1.000000    
    x104      obj       -8.000000     c5        8.000000    
    x104      c26       1.000000    
    x105      obj       -20.000000    c6        20.000000   
    x105      c26       1.000000    
    x106      obj       -18.000000    c2        18.000000   
    x106      c27       1.000000    
    x107      obj       -11.000000    c3        11.000000   
    x107      c27       1.000000    
    x108      obj       -13.000000    c4        13.000000   
    x108      c27       1.000000    
    x109      obj       -14.000000    c5        14.000000   
    x109      c27       1.000000    
    x110      obj       -16.000000    c6        16.000000   
    x110      c27       1.000000    
    x111      obj       -19.000000    c2        19.000000   
    x111      c28       1.000000    
    x112      obj       -21.000000    c3        21.000000   
    x112      c28       1.000000    
    x113      obj       -15.000000    c4        15.000000   
    x113      c28       1.000000    
    x114      obj       -24.000000    c5        24.000000   
    x114      c28       1.000000    
    x115      obj       -9.000000     c6        9.000000    
    x115      c28       1.000000    
    x116      obj       -10.000000    c2        10.000000   
    x116      c29       1.000000    
    x117      obj       -17.000000    c3        17.000000   
    x117      c29       1.000000    
    x118      obj       -20.000000    c4        20.000000   
    x118      c29       1.000000    
    x119      obj       -9.000000     c5        9.000000    
    x119      c29       1.000000    
    x120      obj       -10.000000    c6        10.000000   
    x120      c29       1.000000    
    x121      obj       -17.000000    c2        17.000000   
    x121      c30       1.000000    
    x122      obj       -16.000000    c3        16.000000   
    x122      c30       1.000000    
    x123      obj       -23.000000    c4        23.000000   
    x123      c30       1.000000    
    x124      obj       -9.000000     c5        9.000000    
    x124      c30       1.000000    
    x125      obj       -18.000000    c6        18.000000   
    x125      c30       1.000000    
    x126      obj       -3.000000     c2        3.000000    
    x126      c31       1.000000    
    x127      obj       -23.000000    c3        23.000000   
    x127      c31       1.000000    
    x128      c31       1.000000    
    x129      obj       -18.000000    c5        18.000000   
    x129      c31       1.000000    
    x130      obj       -1.000000     c6        1.000000    
    x130      c31       1.000000    
    x131      obj       -5.000000     c2        5.000000    
    x131      c32       1.000000    
    x132      obj       -10.000000    c3        10.000000   
    x132      c32       1.000000    
    x133      obj       -17.000000    c4        17.000000   
    x133      c32       1.000000    
    x134      obj       -6.000000     c5        6.000000    
    x134      c32       1.000000    
    x135      obj       -2.000000     c6        2.000000    
    x135      c32       1.000000    
    x136      obj       -3.000000     c2        3.000000    
    x136      c33       1.000000    
    x137      c33       1.000000    
    x138      obj       -23.000000    c4        23.000000   
    x138      c33       1.000000    
    x139      obj       -4.000000     c5        4.000000    
    x139      c33       1.000000    
    x140      obj       -11.000000    c6        11.000000   
    x140      c33       1.000000    
    x141      obj       -11.000000    c2        11.000000   
    x141      c34       1.000000    
    x142      obj       -6.000000     c3        6.000000    
    x142      c34       1.000000    
    x143      obj       -5.000000     c4        5.000000    
    x143      c34       1.000000    
    x144      obj       -18.000000    c5        18.000000   
    x144      c34       1.000000    
    x145      obj       -11.000000    c6        11.000000   
    x145      c34       1.000000    
    x146      obj       -25.000000    c2        25.000000   
    x146      c35       1.000000    
    x147      obj       -7.000000     c3        7.000000    
    x147      c35       1.000000    
    x148      obj       -1.000000     c4        1.000000    
    x148      c35       1.000000    
    x149      obj       -12.000000    c5        12.000000   
    x149      c35       1.000000    
    x150      obj       -17.000000    c6        17.000000   
    x150      c35       1.000000    
    x151      obj       -7.000000     c2        7.000000    
    x151      c36       1.000000    
    x152      obj       -16.000000    c3        16.000000   
    x152      c36       1.000000    
    x153      obj       -6.000000     c4        6.000000    
    x153      c36       1.000000    
    x154      obj       -23.000000    c5        23.000000   
    x154      c36       1.000000    
    x155      obj       -4.000000     c6        4.000000    
    x155      c36       1.000000    
    x156      obj       -12.000000    c2        12.000000   
    x156      c37       1.000000    
    x157      obj       -3.000000     c3        3.000000    
    x157      c37       1.000000    
    x158      obj       -13.000000    c4        13.000000   
    x158      c37       1.000000    
    x159      obj       -8.000000     c5        8.000000    
    x159      c37       1.000000    
    x160      obj       -16.000000    c6        16.000000   
    x160      c37       1.000000    
    x161      obj       -22.000000    c2        22.000000   
    x161      c38       1.000000    
    x162      obj       -7.000000     c3        7.000000    
    x162      c38       1.000000    
    x163      obj       -6.000000     c4        6.000000    
    x163      c38       1.000000    
    x164      obj       -22.000000    c5        22.000000   
    x164      c38       1.000000    
    x165      obj       -13.000000    c6        13.000000   
    x165      c38       1.000000    
    x166      obj       -12.000000    c2        12.000000   
    x166      c39       1.000000    
    x167      obj       -4.000000     c3        4.000000    
    x167      c39       1.000000    
    x168      obj       -2.000000     c4        2.000000    
    x168      c39       1.000000    
    x169      obj       -24.000000    c5        24.000000   
    x169      c39       1.000000    
    x170      obj       -20.000000    c6        20.000000   
    x170      c39       1.000000    
    x171      obj       -6.000000     c2        6.000000    
    x171      c40       1.000000    
    x172      obj       -10.000000    c3        10.000000   
    x172      c40       1.000000    
    x173      obj       -7.000000     c4        7.000000    
    x173      c40       1.000000    
    x174      obj       -18.000000    c5        18.000000   
    x174      c40       1.000000    
    x175      obj       -3.000000     c6        3.000000    
    x175      c40       1.000000    
    x176      obj       -9.000000     c2        9.000000    
    x176      c41       1.000000    
    x177      obj       -5.000000     c3        5.000000    
    x177      c41       1.000000    
    x178      obj       -23.000000    c4        23.000000   
    x178      c41       1.000000    
    x179      obj       -10.000000    c5        10.000000   
    x179      c41       1.000000    
    x180      obj       -16.000000    c6        16.000000   
    x180      c41       1.000000    
    x181      obj       -5.000000     c2        5.000000    
    x181      c42       1.000000    
    x182      obj       -23.000000    c3        23.000000   
    x182      c42       1.000000    
    x183      obj       -14.000000    c4        14.000000   
    x183      c42       1.000000    
    x184      obj       -16.000000    c5        16.000000   
    x184      c42       1.000000    
    x185      obj       -7.000000     c6        7.000000    
    x185      c42       1.000000    
    x186      obj       -13.000000    c2        13.000000   
    x186      c43       1.000000    
    x187      obj       -14.000000    c3        14.000000   
    x187      c43       1.000000    
    x188      obj       -11.000000    c4        11.000000   
    x188      c43       1.000000    
    x189      obj       -10.000000    c5        10.000000   
    x189      c43       1.000000    
    x190      obj       -16.000000    c6        16.000000   
    x190      c43       1.000000    
    x191      obj       -21.000000    c2        21.000000   
    x191      c44       1.000000    
    x192      obj       -16.000000    c3        16.000000   
    x192      c44       1.000000    
    x193      obj       -14.000000    c4        14.000000   
    x193      c44       1.000000    
    x194      obj       -16.000000    c5        16.000000   
    x194      c44       1.000000    
    x195      obj       -3.000000     c6        3.000000    
    x195      c44       1.000000    
    x196      obj       -11.000000    c2        11.000000   
    x196      c45       1.000000    
    x197      obj       -20.000000    c3        20.000000   
    x197      c45       1.000000    
    x198      c45       1.000000    
    x199      obj       -2.000000     c5        2.000000    
    x199      c45       1.000000    
    x200      obj       -23.000000    c6        23.000000   
    x200      c45       1.000000    
    x201      c46       1.000000    
    x202      obj       -4.000000     c3        4.000000    
    x202      c46       1.000000    
    x203      obj       -23.000000    c4        23.000000   
    x203      c46       1.000000    
    x204      obj       -9.000000     c5        9.000000    
    x204      c46       1.000000    
    x205      obj       -7.000000     c6        7.000000    
    x205      c46       1.000000    
    x206      obj       -22.000000    c2        22.000000   
    x206      c47       1.000000    
    x207      obj       -14.000000    c3        14.000000   
    x207      c47       1.000000    
    x208      obj       -19.000000    c4        19.000000   
    x208      c47       1.000000    
    x209      obj       -22.000000    c5        22.000000   
    x209      c47       1.000000    
    x210      obj       -25.000000    c6        25.000000   
    x210      c47       1.000000    
    x211      obj       -24.000000    c2        24.000000   
    x211      c48       1.000000    
    x212      obj       -2.000000     c3        2.000000    
    x212      c48       1.000000    
    x213      obj       -23.000000    c4        23.000000   
    x213      c48       1.000000    
    x214      obj       -5.000000     c5        5.000000    
    x214      c48       1.000000    
    x215      obj       -12.000000    c6        12.000000   
    x215      c48       1.000000    
    x216      c49       1.000000    
    x217      obj       -10.000000    c3        10.000000   
    x217      c49       1.000000    
    x218      obj       -17.000000    c4        17.000000   
    x218      c49       1.000000    
    x219      obj       -14.000000    c5        14.000000   
    x219      c49       1.000000    
    x220      obj       -23.000000    c6        23.000000   
    x220      c49       1.000000    
    x221      obj       -4.000000     c2        4.000000    
    x221      c50       1.000000    
    x222      obj       -2.000000     c3        2.000000    
    x222      c50       1.000000    
    x223      c50       1.000000    
    x224      obj       -22.000000    c5        22.000000   
    x224      c50       1.000000    
    x225      obj       -14.000000    c6        14.000000   
    x225      c50       1.000000    
    x226      obj       -13.000000    c2        13.000000   
    x226      c51       1.000000    
    x227      obj       -25.000000    c3        25.000000   
    x227      c51       1.000000    
    x228      obj       -3.000000     c4        3.000000    
    x228      c51       1.000000    
    x229      obj       -24.000000    c5        24.000000   
    x229      c51       1.000000    
    x230      obj       -17.000000    c6        17.000000   
    x230      c51       1.000000    
    x231      obj       -5.000000     c2        5.000000    
    x231      c52       1.000000    
    x232      obj       -4.000000     c3        4.000000    
    x232      c52       1.000000    
    x233      obj       -13.000000    c4        13.000000   
    x233      c52       1.000000    
    x234      obj       -7.000000     c5        7.000000    
    x234      c52       1.000000    
    x235      obj       -13.000000    c6        13.000000   
    x235      c52       1.000000    
    x236      obj       -12.000000    c2        12.000000   
    x236      c53       1.000000    
    x237      obj       -23.000000    c3        23.000000   
    x237      c53       1.000000    
    x238      obj       -19.000000    c4        19.000000   
    x238      c53       1.000000    
    x239      obj       -5.000000     c5        5.000000    
    x239      c53       1.000000    
    x240      obj       -18.000000    c6        18.000000   
    x240      c53       1.000000    
    x241      obj       -7.000000     c2        7.000000    
    x241      c54       1.000000    
    x242      obj       -21.000000    c3        21.000000   
    x242      c54       1.000000    
    x243      obj       -19.000000    c4        19.000000   
    x243      c54       1.000000    
    x244      obj       -1.000000     c5        1.000000    
    x244      c54       1.000000    
    x245      obj       -16.000000    c6        16.000000   
    x245      c54       1.000000    
    x246      obj       -2.000000     c2        2.000000    
    x246      c55       1.000000    
    x247      obj       -24.000000    c3        24.000000   
    x247      c55       1.000000    
    x248      obj       -20.000000    c4        20.000000   
    x248      c55       1.000000    
    x249      c55       1.000000    
    x250      obj       -12.000000    c6        12.000000   
    x250      c55       1.000000    
    x251      obj       -3.000000     c2        3.000000    
    x251      c56       1.000000    
    x252      obj       -7.000000     c3        7.000000    
    x252      c56       1.000000    
    x253      obj       -18.000000    c4        18.000000   
    x253      c56       1.000000    
    x254      obj       -14.000000    c5        14.000000   
    x254      c56       1.000000    
    x255      obj       -16.000000    c6        16.000000   
    x255      c56       1.000000    
    MARKER    'MARKER'  'INTEND'    
    x256      obj       1000.000000   c2        -1.000000   
    x257      obj       1000.000000   c3        -1.000000   
    x258      obj       1000.000000   c4        -1.000000   
    x259      obj       1000.000000   c5        -1.000000   
    x260      obj       1000.000000   c6        -1.000000   
RHS
    rhs       c1        5.000000      c2        -0.000000   
    rhs       c3        -0.000000     c4        -0.000000   
    rhs       c5        -0.000000     c6        -0.000000   
    rhs       c7        1.000000      c8        1.000000    
    rhs       c9        1.000000      c10       1.000000    
    rhs       c11       1.000000      c12       1.000000    
    rhs       c13       1.000000      c14       1.000000    
    rhs       c15       1.000000      c16       1.000000    
    rhs       c17       1.000000      c18       1.000000    
    rhs       c19       1.000000      c20       1.000000    
    rhs       c21       1.000000      c22       1.000000    
    rhs       c23       1.000000      c24       1.000000    
    rhs       c25       1.000000      c26       1.000000    
    rhs       c27       1.000000      c28       1.000000    
    rhs       c29       1.000000      c30       1.000000    
    rhs       c31       1.000000      c32       1.000000    
    rhs       c33       1.000000      c34       1.000000    
    rhs       c35       1.000000      c36       1.000000    
    rhs       c37       1.000000      c38       1.000000    
    rhs       c39       1.000000      c40       1.000000    
    rhs       c41       1.000000      c42       1.000000    
    rhs       c43       1.000000      c44       1.000000    
    rhs       c45       1.000000      c46       1.000000    
    rhs       c47       1.000000      c48       1.000000    
    rhs       c49       1.000000      c50       1.000000    
    rhs       c51       1.000000      c52       1.000000    
    rhs       c53       1.000000      c54       1.000000    
    rhs       c55       1.000000      c56       1.000000    
BOUNDS
 BV BOUND  x1      
 BV BOUND  x2      
 BV BOUND  x3      
 BV BOUND  x4      
 BV BOUND  x5      
 BV BOUND  x6      
 BV BOUND  x7      
 BV BOUND  x8      
 BV BOUND  x9      
 BV BOUND  x10     
 BV BOUND  x11     
 BV BOUND  x12     
 BV BOUND  x13     
 BV BOUND  x14     
 BV BOUND  x15     
 BV BOUND  x16     
 BV BOUND  x17     
 BV BOUND  x18     
 BV BOUND  x19     
 BV BOUND  x20     
 BV BOUND  x21     
 BV BOUND  x22     
 BV BOUND  x23     
 BV BOUND  x24     
 BV BOUND  x25     
 BV BOUND  x26     
 BV BOUND  x27     
 BV BOUND  x28     
 BV BOUND  x29     
 BV BOUND  x30     
 BV BOUND  x31     
 BV BOUND  x32     
 BV BOUND  x33     
 BV BOUND  x34     
 BV BOUND  x35     
 BV BOUND  x36     
 BV BOUND  x37     
 BV BOUND  x38     
 BV BOUND  x39     
 BV BOUND  x40     
 BV BOUND  x41     
 BV BOUND  x42     
 BV BOUND  x43     
 BV BOUND  x44     
 BV BOUND  x45     
 BV BOUND  x46     
 BV BOUND  x47     
 BV BOUND  x48     
 BV BOUND  x49     
 BV BOUND  x50     
 BV BOUND  x51     
 BV BOUND  x52     
 BV BOUND  x53     
 BV BOUND  x54     
 BV BOUND  x55     
 BV BOUND  x56     
 BV BOUND  x57     
 BV BOUND  x58     
 BV BOUND  x59     
 BV BOUND  x60     
 BV BOUND  x61     
 BV BOUND  x62     
 BV BOUND  x63     
 BV BOUND  x64     
 BV BOUND  x65     
 BV BOUND  x66     
 BV BOUND  x67     
 BV BOUND  x68     
 BV BOUND  x69     
 BV BOUND  x70     
 BV BOUND  x71     
 BV BOUND  x72     
 BV BOUND  x73     
 BV BOUND  x74     
 BV BOUND  x75     
 BV BOUND  x76     
 BV BOUND  x77     
 BV BOUND  x78     
 BV BOUND  x79     
 BV BOUND  x80     
 BV BOUND  x81     
 BV BOUND  x82     
 BV BOUND  x83     
 BV BOUND  x84     
 BV BOUND  x85     
 BV BOUND  x86     
 BV BOUND  x87     
 BV BOUND  x88     
 BV BOUND  x89     
 BV BOUND  x90     
 BV BOUND  x91     
 BV BOUND  x92     
 BV BOUND  x93     
 BV BOUND  x94     
 BV BOUND  x95     
 BV BOUND  x96     
 BV BOUND  x97     
 BV BOUND  x98     
 BV BOUND  x99     
 BV BOUND  x100    
 BV BOUND  x101    
 BV BOUND  x102    
 BV BOUND  x103    
 BV BOUND  x104    
 BV BOUND  x105    
 BV BOUND  x106    
 BV BOUND  x107    
 BV BOUND  x108    
 BV BOUND  x109    
 BV BOUND  x110    
 BV BOUND  x111    
 BV BOUND  x112    
 BV BOUND  x113    
 BV BOUND  x114    
 BV BOUND  x115    
 BV BOUND  x116    
 BV BOUND  x117    
 BV BOUND  x118    
 BV BOUND  x119    
 BV BOUND  x120    
 BV BOUND  x121    
 BV BOUND  x122    
 BV BOUND  x123    
 BV BOUND  x124    
 BV BOUND  x125    
 BV BOUND  x126    
 BV BOUND  x127    
 BV BOUND  x128    
 BV BOUND  x129    
 BV BOUND  x130    
 BV BOUND  x131    
 BV BOUND  x132    
 BV BOUND  x133    
 BV BOUND  x134    
 BV BOUND  x135    
 BV BOUND  x136    
 BV BOUND  x137    
 BV BOUND  x138    
 BV BOUND  x139    
 BV BOUND  x140    
 BV BOUND  x141    
 BV BOUND  x142    
 BV BOUND  x143    
 BV BOUND  x144    
 BV BOUND  x145    
 BV BOUND  x146    
 BV BOUND  x147    
 BV BOUND  x148    
 BV BOUND  x149    
 BV BOUND  x150    
 BV BOUND  x151    
 BV BOUND  x152    
 BV BOUND  x153    
 BV BOUND  x154    
 BV BOUND  x155    
 BV BOUND  x156    
 BV BOUND  x157    
 BV BOUND  x158    
 BV BOUND  x159    
 BV BOUND  x160    
 BV BOUND  x161    
 BV BOUND  x162    
 BV BOUND  x163    
 BV BOUND  x164    
 BV BOUND  x165    
 BV BOUND  x166    
 BV BOUND  x167    
 BV BOUND  x168    
 BV BOUND  x169    
 BV BOUND  x170    
 BV BOUND  x171    
 BV BOUND  x172    
 BV BOUND  x173    
 BV BOUND  x174    
 BV BOUND  x175    
 BV BOUND  x176    
 BV BOUND  x177    
 BV BOUND  x178    
 BV BOUND  x179    
 BV BOUND  x180    
 BV BOUND  x181    
 BV BOUND  x182    
 BV BOUND  x183    
 BV BOUND  x184    
 BV BOUND  x185    
 BV BOUND  x186    
 BV BOUND  x187    
 BV BOUND  x188    
 BV BOUND  x189    
 BV BOUND  x190    
 BV BOUND  x191    
 BV BOUND  x192    
 BV BOUND  x193    
 BV BOUND  x194    
 BV BOUND  x195    
 BV BOUND  x196    
 BV BOUND  x197    
 BV BOUND  x198    
 BV BOUND  x199    
 BV BOUND  x200    
 BV BOUND  x201    
 BV BOUND  x202    
 BV BOUND  x203    
 BV BOUND  x204    
 BV BOUND  x205    
 BV BOUND  x206    
 BV BOUND  x207    
 BV BOUND  x208    
 BV BOUND  x209    
 BV BOUND  x210    
 BV BOUND  x211    
 BV BOUND  x212    
 BV BOUND  x213    
 BV BOUND  x214    
 BV BOUND  x215    
 BV BOUND  x216    
 BV BOUND  x217    
 BV BOUND  x218    
 BV BOUND  x219    
 BV BOUND  x220    
 BV BOUND  x221    
 BV BOUND  x222    
 BV BOUND  x223    
 BV BOUND  x224    
 BV BOUND  x225    
 BV BOUND  x226    
 BV BOUND  x227    
 BV BOUND  x228    
 BV BOUND  x229    
 BV BOUND  x230    
 BV BOUND  x231    
 BV BOUND  x232    
 BV BOUND  x233    
 BV BOUND  x234    
 BV BOUND  x235    
 BV BOUND  x236    
 BV BOUND  x237    
 BV BOUND  x238    
 BV BOUND  x239    
 BV BOUND  x240    
 BV BOUND  x241    
 BV BOUND  x242    
 BV BOUND  x243    
 BV BOUND  x244    
 BV BOUND  x245    
 BV BOUND  x246    
 BV BOUND  x247    
 BV BOUND  x248    
 BV BOUND  x249    
 BV BOUND  x250    
 BV BOUND  x251    
 BV BOUND  x252    
 BV BOUND  x253    
 BV BOUND  x254    
 BV BOUND  x255    
 PL BOUND     x256    
 PL BOUND     x257    
 PL BOUND     x258    
 PL BOUND     x259    
 PL BOUND     x260    
ENDATA
